/* Objective function */
 min: 622 x11 + 624 x12 + 630 x13 + 641 x21 + 645 x22 + 649 x23 + 600 x14 + 625 x24;

/* Constraints */
  x11 + x21  = 80;
  x12 + x22  = 60;
  x13 + x23  = 75;
  x14 + x24 = 10;

